p cnf 550 1561
a 1 2 3 4 5 6 7 8 9 10 11 12 13 14 15 16 17 18 19 20 21 22 23 24 25 26 27 28 29 30 31 32 33 34 35 36 37 38 39 40 41 42 43 44 45 46 47 48 0
e 49 50 51 52 53 54 55 56 57 58 59 60 61 62 63 64 65 66 67 68 69 70 71 72 73 74 75 76 77 78 79 80 81 82 83 84 85 86 87 88 89 90 91 92 93 94 95 96 97 98 99 100 101 102 103 104 105 106 107 108 109 110 111 112 113 114 115 116 117 118 119 120 121 122 123 124 125 126 127 128 129 130 131 132 133 134 135 136 137 138 139 140 141 142 143 144 145 146 147 148 149 150 151 152 153 154 155 156 157 158 159 160 161 162 163 164 165 166 167 168 169 170 171 172 173 174 175 176 177 178 179 180 181 182 183 184 185 186 187 188 189 190 191 192 193 194 195 196 197 198 199 200 201 202 203 204 205 206 207 208 209 210 211 212 213 214 215 216 217 218 219 220 221 222 223 224 225 226 227 228 229 230 231 232 233 234 235 236 237 238 239 240 241 242 243 244 245 246 247 248 249 250 251 252 253 254 255 256 257 258 259 260 261 262 263 264 265 266 267 268 269 270 271 272 273 274 275 276 277 278 279 280 281 282 283 284 285 286 287 288 289 290 291 292 293 294 295 296 297 298 299 300 301 302 303 304 305 306 307 308 309 310 311 312 313 314 315 316 317 318 319 320 321 322 323 324 325 326 327 328 329 330 331 332 333 334 335 336 337 338 339 340 341 342 343 344 345 346 347 348 349 350 351 352 353 354 355 356 357 358 359 360 361 362 363 364 365 366 367 368 369 370 371 372 373 374 375 376 377 378 379 380 381 382 383 384 385 386 387 388 389 390 391 392 393 394 395 396 397 398 399 400 401 402 403 404 405 406 407 408 409 410 411 412 413 414 415 416 417 418 419 420 421 422 423 424 425 426 427 428 429 430 431 432 433 434 435 436 437 438 439 440 441 442 443 444 445 446 447 448 449 450 451 452 453 454 455 456 457 458 459 460 461 462 463 464 465 466 467 468 469 470 471 472 473 474 475 476 477 478 479 480 481 482 483 484 485 486 487 488 489 490 491 492 493 494 495 496 497 498 499 500 501 502 503 504 505 506 507 508 509 510 511 512 513 514 515 516 517 518 519 520 521 522 523 524 525 526 527 528 529 530 531 532 533 534 535 536 537 538 539 540 541 542 543 544 545 546 547 548 549 0
-1 -89 0
-2 -89 0
-3 -89 0
1 2 3 89 0
-4 -90 0
-5 -90 0
-6 -90 0
4 5 6 90 0
89 -91 0
90 -91 0
-7 -91 0
-8 -91 0
7 8 91 -89 -90 0
-7 -8 -92 0
7 8 -92 0
8 92 -7 0
7 92 -8 0
93 -1 0
1 -93 0
-2 -93 -94 0
2 93 -94 0
93 94 -2 0
2 94 -93 0
2 -95 0
93 -95 0
95 -2 -93 0
96 -95 0
95 -96 0
-3 -96 -97 0
3 96 -97 0
96 97 -3 0
3 97 -96 0
3 -98 0
96 -98 0
98 -3 -96 0
99 -98 0
98 -99 0
-92 -100 0
-1 -100 0
92 1 100 0
92 -101 0
1 -101 0
101 -92 -1 0
102 -100 0
102 -101 0
100 101 -102 0
-92 -103 0
94 -103 0
92 103 -94 0
92 -104 0
2 -104 0
104 -92 -2 0
105 -103 0
105 -104 0
103 104 -105 0
-92 -106 0
97 -106 0
92 106 -97 0
92 -107 0
3 -107 0
107 -92 -3 0
108 -106 0
108 -107 0
106 107 -108 0
-9 -102 -109 0
9 102 -109 0
102 109 -9 0
9 109 -102 0
-10 -105 -110 0
10 105 -110 0
105 110 -10 0
10 110 -105 0
-11 -108 -111 0
11 108 -111 0
108 111 -11 0
11 111 -108 0
-109 -112 0
-110 -112 0
-111 -112 0
109 110 111 112 0
113 -4 0
4 -113 0
-5 -113 -114 0
5 113 -114 0
113 114 -5 0
5 114 -113 0
5 -115 0
113 -115 0
115 -5 -113 0
116 -115 0
115 -116 0
-6 -116 -117 0
6 116 -117 0
116 117 -6 0
6 117 -116 0
6 -118 0
116 -118 0
118 -6 -116 0
119 -118 0
118 -119 0
-92 -120 0
4 -120 0
92 120 -4 0
92 -121 0
-4 -121 0
4 121 -92 0
122 -120 0
122 -121 0
120 121 -122 0
-92 -123 0
5 -123 0
92 123 -5 0
92 -124 0
114 -124 0
124 -92 -114 0
125 -123 0
125 -124 0
123 124 -125 0
-92 -126 0
6 -126 0
92 126 -6 0
92 -127 0
117 -127 0
127 -92 -117 0
128 -126 0
128 -127 0
126 127 -128 0
-12 -122 -129 0
12 122 -129 0
122 129 -12 0
12 129 -122 0
-13 -125 -130 0
13 125 -130 0
125 130 -13 0
13 130 -125 0
-14 -128 -131 0
14 128 -131 0
128 131 -14 0
14 131 -128 0
-129 -132 0
-130 -132 0
-131 -132 0
129 130 131 132 0
8 -15 -133 0
15 -8 -133 0
133 -15 -8 0
15 8 133 0
-16 -7 -134 0
16 7 -134 0
7 134 -16 0
16 134 -7 0
112 -135 0
132 -135 0
-133 -135 0
-134 -135 0
133 134 135 -112 -132 0
-15 -16 -136 0
15 16 -136 0
16 136 -15 0
15 136 -16 0
137 -9 0
9 -137 0
-10 -137 -138 0
10 137 -138 0
137 138 -10 0
10 138 -137 0
10 -139 0
137 -139 0
139 -10 -137 0
140 -139 0
139 -140 0
-11 -140 -141 0
11 140 -141 0
140 141 -11 0
11 141 -140 0
11 -142 0
140 -142 0
142 -11 -140 0
143 -142 0
142 -143 0
-136 -144 0
-9 -144 0
136 9 144 0
136 -145 0
9 -145 0
145 -136 -9 0
146 -144 0
146 -145 0
144 145 -146 0
-136 -147 0
138 -147 0
136 147 -138 0
136 -148 0
10 -148 0
148 -136 -10 0
149 -147 0
149 -148 0
147 148 -149 0
-136 -150 0
141 -150 0
136 150 -141 0
136 -151 0
11 -151 0
151 -136 -11 0
152 -150 0
152 -151 0
150 151 -152 0
-17 -146 -153 0
17 146 -153 0
146 153 -17 0
17 153 -146 0
-18 -149 -154 0
18 149 -154 0
149 154 -18 0
18 154 -149 0
-19 -152 -155 0
19 152 -155 0
152 155 -19 0
19 155 -152 0
-153 -156 0
-154 -156 0
-155 -156 0
153 154 155 156 0
157 -12 0
12 -157 0
-13 -157 -158 0
13 157 -158 0
157 158 -13 0
13 158 -157 0
13 -159 0
157 -159 0
159 -13 -157 0
160 -159 0
159 -160 0
-14 -160 -161 0
14 160 -161 0
160 161 -14 0
14 161 -160 0
14 -162 0
160 -162 0
162 -14 -160 0
163 -162 0
162 -163 0
-136 -164 0
12 -164 0
136 164 -12 0
136 -165 0
-12 -165 0
12 165 -136 0
166 -164 0
166 -165 0
164 165 -166 0
-136 -167 0
13 -167 0
136 167 -13 0
136 -168 0
158 -168 0
168 -136 -158 0
169 -167 0
169 -168 0
167 168 -169 0
-136 -170 0
14 -170 0
136 170 -14 0
136 -171 0
161 -171 0
171 -136 -161 0
172 -170 0
172 -171 0
170 171 -172 0
-20 -166 -173 0
20 166 -173 0
166 173 -20 0
20 173 -166 0
-21 -169 -174 0
21 169 -174 0
169 174 -21 0
21 174 -169 0
-22 -172 -175 0
22 172 -175 0
172 175 -22 0
22 175 -172 0
-173 -176 0
-174 -176 0
-175 -176 0
173 174 175 176 0
16 -23 -177 0
23 -16 -177 0
177 -23 -16 0
23 16 177 0
-24 -15 -178 0
24 15 -178 0
15 178 -24 0
24 178 -15 0
156 -179 0
176 -179 0
-177 -179 0
-178 -179 0
177 178 179 -156 -176 0
-23 -24 -180 0
23 24 -180 0
24 180 -23 0
23 180 -24 0
181 -17 0
17 -181 0
-18 -181 -182 0
18 181 -182 0
181 182 -18 0
18 182 -181 0
18 -183 0
181 -183 0
183 -18 -181 0
184 -183 0
183 -184 0
-19 -184 -185 0
19 184 -185 0
184 185 -19 0
19 185 -184 0
19 -186 0
184 -186 0
186 -19 -184 0
187 -186 0
186 -187 0
-180 -188 0
-17 -188 0
180 17 188 0
180 -189 0
17 -189 0
189 -180 -17 0
190 -188 0
190 -189 0
188 189 -190 0
-180 -191 0
182 -191 0
180 191 -182 0
180 -192 0
18 -192 0
192 -180 -18 0
193 -191 0
193 -192 0
191 192 -193 0
-180 -194 0
185 -194 0
180 194 -185 0
180 -195 0
19 -195 0
195 -180 -19 0
196 -194 0
196 -195 0
194 195 -196 0
-25 -190 -197 0
25 190 -197 0
190 197 -25 0
25 197 -190 0
-26 -193 -198 0
26 193 -198 0
193 198 -26 0
26 198 -193 0
-27 -196 -199 0
27 196 -199 0
196 199 -27 0
27 199 -196 0
-197 -200 0
-198 -200 0
-199 -200 0
197 198 199 200 0
201 -20 0
20 -201 0
-21 -201 -202 0
21 201 -202 0
201 202 -21 0
21 202 -201 0
21 -203 0
201 -203 0
203 -21 -201 0
204 -203 0
203 -204 0
-22 -204 -205 0
22 204 -205 0
204 205 -22 0
22 205 -204 0
22 -206 0
204 -206 0
206 -22 -204 0
207 -206 0
206 -207 0
-180 -208 0
20 -208 0
180 208 -20 0
180 -209 0
-20 -209 0
20 209 -180 0
210 -208 0
210 -209 0
208 209 -210 0
-180 -211 0
21 -211 0
180 211 -21 0
180 -212 0
202 -212 0
212 -180 -202 0
213 -211 0
213 -212 0
211 212 -213 0
-180 -214 0
22 -214 0
180 214 -22 0
180 -215 0
205 -215 0
215 -180 -205 0
216 -214 0
216 -215 0
214 215 -216 0
-28 -210 -217 0
28 210 -217 0
210 217 -28 0
28 217 -210 0
-29 -213 -218 0
29 213 -218 0
213 218 -29 0
29 218 -213 0
-30 -216 -219 0
30 216 -219 0
216 219 -30 0
30 219 -216 0
-217 -220 0
-218 -220 0
-219 -220 0
217 218 219 220 0
24 -31 -221 0
31 -24 -221 0
221 -31 -24 0
31 24 221 0
-32 -23 -222 0
32 23 -222 0
23 222 -32 0
32 222 -23 0
200 -223 0
220 -223 0
-221 -223 0
-222 -223 0
221 222 223 -200 -220 0
-31 -32 -224 0
31 32 -224 0
32 224 -31 0
31 224 -32 0
225 -25 0
25 -225 0
-26 -225 -226 0
26 225 -226 0
225 226 -26 0
26 226 -225 0
26 -227 0
225 -227 0
227 -26 -225 0
228 -227 0
227 -228 0
-27 -228 -229 0
27 228 -229 0
228 229 -27 0
27 229 -228 0
27 -230 0
228 -230 0
230 -27 -228 0
231 -230 0
230 -231 0
-224 -232 0
-25 -232 0
224 25 232 0
224 -233 0
25 -233 0
233 -224 -25 0
234 -232 0
234 -233 0
232 233 -234 0
-224 -235 0
226 -235 0
224 235 -226 0
224 -236 0
26 -236 0
236 -224 -26 0
237 -235 0
237 -236 0
235 236 -237 0
-224 -238 0
229 -238 0
224 238 -229 0
224 -239 0
27 -239 0
239 -224 -27 0
240 -238 0
240 -239 0
238 239 -240 0
-33 -234 -241 0
33 234 -241 0
234 241 -33 0
33 241 -234 0
-34 -237 -242 0
34 237 -242 0
237 242 -34 0
34 242 -237 0
-35 -240 -243 0
35 240 -243 0
240 243 -35 0
35 243 -240 0
-241 -244 0
-242 -244 0
-243 -244 0
241 242 243 244 0
245 -28 0
28 -245 0
-29 -245 -246 0
29 245 -246 0
245 246 -29 0
29 246 -245 0
29 -247 0
245 -247 0
247 -29 -245 0
248 -247 0
247 -248 0
-30 -248 -249 0
30 248 -249 0
248 249 -30 0
30 249 -248 0
30 -250 0
248 -250 0
250 -30 -248 0
251 -250 0
250 -251 0
-224 -252 0
28 -252 0
224 252 -28 0
224 -253 0
-28 -253 0
28 253 -224 0
254 -252 0
254 -253 0
252 253 -254 0
-224 -255 0
29 -255 0
224 255 -29 0
224 -256 0
246 -256 0
256 -224 -246 0
257 -255 0
257 -256 0
255 256 -257 0
-224 -258 0
30 -258 0
224 258 -30 0
224 -259 0
249 -259 0
259 -224 -249 0
260 -258 0
260 -259 0
258 259 -260 0
-36 -254 -261 0
36 254 -261 0
254 261 -36 0
36 261 -254 0
-37 -257 -262 0
37 257 -262 0
257 262 -37 0
37 262 -257 0
-38 -260 -263 0
38 260 -263 0
260 263 -38 0
38 263 -260 0
-261 -264 0
-262 -264 0
-263 -264 0
261 262 263 264 0
32 -39 -265 0
39 -32 -265 0
265 -39 -32 0
39 32 265 0
-40 -31 -266 0
40 31 -266 0
31 266 -40 0
40 266 -31 0
244 -267 0
264 -267 0
-265 -267 0
-266 -267 0
265 266 267 -244 -264 0
-39 -40 -268 0
39 40 -268 0
40 268 -39 0
39 268 -40 0
269 -33 0
33 -269 0
-34 -269 -270 0
34 269 -270 0
269 270 -34 0
34 270 -269 0
34 -271 0
269 -271 0
271 -34 -269 0
272 -271 0
271 -272 0
-35 -272 -273 0
35 272 -273 0
272 273 -35 0
35 273 -272 0
35 -274 0
272 -274 0
274 -35 -272 0
275 -274 0
274 -275 0
-268 -276 0
-33 -276 0
268 33 276 0
268 -277 0
33 -277 0
277 -268 -33 0
278 -276 0
278 -277 0
276 277 -278 0
-268 -279 0
270 -279 0
268 279 -270 0
268 -280 0
34 -280 0
280 -268 -34 0
281 -279 0
281 -280 0
279 280 -281 0
-268 -282 0
273 -282 0
268 282 -273 0
268 -283 0
35 -283 0
283 -268 -35 0
284 -282 0
284 -283 0
282 283 -284 0
-41 -278 -285 0
41 278 -285 0
278 285 -41 0
41 285 -278 0
-42 -281 -286 0
42 281 -286 0
281 286 -42 0
42 286 -281 0
-43 -284 -287 0
43 284 -287 0
284 287 -43 0
43 287 -284 0
-285 -288 0
-286 -288 0
-287 -288 0
285 286 287 288 0
289 -36 0
36 -289 0
-37 -289 -290 0
37 289 -290 0
289 290 -37 0
37 290 -289 0
37 -291 0
289 -291 0
291 -37 -289 0
292 -291 0
291 -292 0
-38 -292 -293 0
38 292 -293 0
292 293 -38 0
38 293 -292 0
38 -294 0
292 -294 0
294 -38 -292 0
295 -294 0
294 -295 0
-268 -296 0
36 -296 0
268 296 -36 0
268 -297 0
-36 -297 0
36 297 -268 0
298 -296 0
298 -297 0
296 297 -298 0
-268 -299 0
37 -299 0
268 299 -37 0
268 -300 0
290 -300 0
300 -268 -290 0
301 -299 0
301 -300 0
299 300 -301 0
-268 -302 0
38 -302 0
268 302 -38 0
268 -303 0
293 -303 0
303 -268 -293 0
304 -302 0
304 -303 0
302 303 -304 0
-44 -298 -305 0
44 298 -305 0
298 305 -44 0
44 305 -298 0
-45 -301 -306 0
45 301 -306 0
301 306 -45 0
45 306 -301 0
-46 -304 -307 0
46 304 -307 0
304 307 -46 0
46 307 -304 0
-305 -308 0
-306 -308 0
-307 -308 0
305 306 307 308 0
40 -47 -309 0
47 -40 -309 0
309 -47 -40 0
47 40 309 0
-48 -39 -310 0
48 39 -310 0
39 310 -48 0
48 310 -39 0
288 -311 0
308 -311 0
-309 -311 0
-310 -311 0
309 310 311 -288 -308 0
91 -312 0
135 -312 0
179 -312 0
223 -312 0
267 -312 0
311 -312 0
312 -91 -135 -179 -223 -267 -311 0
-49 -313 0
-50 -313 0
-51 -313 0
49 50 51 313 0
-52 -314 0
-53 -314 0
-54 -314 0
52 53 54 314 0
313 -315 0
314 -315 0
-55 -315 0
-56 -315 0
55 56 315 -313 -314 0
-55 -56 -316 0
55 56 -316 0
56 316 -55 0
55 316 -56 0
317 -49 0
49 -317 0
-50 -317 -318 0
50 317 -318 0
317 318 -50 0
50 318 -317 0
50 -319 0
317 -319 0
319 -50 -317 0
320 -319 0
319 -320 0
-51 -320 -321 0
51 320 -321 0
320 321 -51 0
51 321 -320 0
51 -322 0
320 -322 0
322 -51 -320 0
323 -322 0
322 -323 0
-316 -324 0
-49 -324 0
316 49 324 0
316 -325 0
49 -325 0
325 -316 -49 0
326 -324 0
326 -325 0
324 325 -326 0
-316 -327 0
318 -327 0
316 327 -318 0
316 -328 0
50 -328 0
328 -316 -50 0
329 -327 0
329 -328 0
327 328 -329 0
-316 -330 0
321 -330 0
316 330 -321 0
316 -331 0
51 -331 0
331 -316 -51 0
332 -330 0
332 -331 0
330 331 -332 0
-57 -326 -333 0
57 326 -333 0
326 333 -57 0
57 333 -326 0
-58 -329 -334 0
58 329 -334 0
329 334 -58 0
58 334 -329 0
-59 -332 -335 0
59 332 -335 0
332 335 -59 0
59 335 -332 0
-333 -336 0
-334 -336 0
-335 -336 0
333 334 335 336 0
337 -52 0
52 -337 0
-53 -337 -338 0
53 337 -338 0
337 338 -53 0
53 338 -337 0
53 -339 0
337 -339 0
339 -53 -337 0
340 -339 0
339 -340 0
-54 -340 -341 0
54 340 -341 0
340 341 -54 0
54 341 -340 0
54 -342 0
340 -342 0
342 -54 -340 0
343 -342 0
342 -343 0
-316 -344 0
52 -344 0
316 344 -52 0
316 -345 0
-52 -345 0
52 345 -316 0
346 -344 0
346 -345 0
344 345 -346 0
-316 -347 0
53 -347 0
316 347 -53 0
316 -348 0
338 -348 0
348 -316 -338 0
349 -347 0
349 -348 0
347 348 -349 0
-316 -350 0
54 -350 0
316 350 -54 0
316 -351 0
341 -351 0
351 -316 -341 0
352 -350 0
352 -351 0
350 351 -352 0
-60 -346 -353 0
60 346 -353 0
346 353 -60 0
60 353 -346 0
-61 -349 -354 0
61 349 -354 0
349 354 -61 0
61 354 -349 0
-62 -352 -355 0
62 352 -355 0
352 355 -62 0
62 355 -352 0
-353 -356 0
-354 -356 0
-355 -356 0
353 354 355 356 0
56 -63 -357 0
63 -56 -357 0
357 -63 -56 0
63 56 357 0
-64 -55 -358 0
64 55 -358 0
55 358 -64 0
64 358 -55 0
336 -359 0
356 -359 0
-357 -359 0
-358 -359 0
357 358 359 -336 -356 0
-63 -64 -360 0
63 64 -360 0
64 360 -63 0
63 360 -64 0
361 -57 0
57 -361 0
-58 -361 -362 0
58 361 -362 0
361 362 -58 0
58 362 -361 0
58 -363 0
361 -363 0
363 -58 -361 0
364 -363 0
363 -364 0
-59 -364 -365 0
59 364 -365 0
364 365 -59 0
59 365 -364 0
59 -366 0
364 -366 0
366 -59 -364 0
367 -366 0
366 -367 0
-360 -368 0
-57 -368 0
360 57 368 0
360 -369 0
57 -369 0
369 -360 -57 0
370 -368 0
370 -369 0
368 369 -370 0
-360 -371 0
362 -371 0
360 371 -362 0
360 -372 0
58 -372 0
372 -360 -58 0
373 -371 0
373 -372 0
371 372 -373 0
-360 -374 0
365 -374 0
360 374 -365 0
360 -375 0
59 -375 0
375 -360 -59 0
376 -374 0
376 -375 0
374 375 -376 0
-65 -370 -377 0
65 370 -377 0
370 377 -65 0
65 377 -370 0
-66 -373 -378 0
66 373 -378 0
373 378 -66 0
66 378 -373 0
-67 -376 -379 0
67 376 -379 0
376 379 -67 0
67 379 -376 0
-377 -380 0
-378 -380 0
-379 -380 0
377 378 379 380 0
381 -60 0
60 -381 0
-61 -381 -382 0
61 381 -382 0
381 382 -61 0
61 382 -381 0
61 -383 0
381 -383 0
383 -61 -381 0
384 -383 0
383 -384 0
-62 -384 -385 0
62 384 -385 0
384 385 -62 0
62 385 -384 0
62 -386 0
384 -386 0
386 -62 -384 0
387 -386 0
386 -387 0
-360 -388 0
60 -388 0
360 388 -60 0
360 -389 0
-60 -389 0
60 389 -360 0
390 -388 0
390 -389 0
388 389 -390 0
-360 -391 0
61 -391 0
360 391 -61 0
360 -392 0
382 -392 0
392 -360 -382 0
393 -391 0
393 -392 0
391 392 -393 0
-360 -394 0
62 -394 0
360 394 -62 0
360 -395 0
385 -395 0
395 -360 -385 0
396 -394 0
396 -395 0
394 395 -396 0
-68 -390 -397 0
68 390 -397 0
390 397 -68 0
68 397 -390 0
-69 -393 -398 0
69 393 -398 0
393 398 -69 0
69 398 -393 0
-70 -396 -399 0
70 396 -399 0
396 399 -70 0
70 399 -396 0
-397 -400 0
-398 -400 0
-399 -400 0
397 398 399 400 0
64 -71 -401 0
71 -64 -401 0
401 -71 -64 0
71 64 401 0
-72 -63 -402 0
72 63 -402 0
63 402 -72 0
72 402 -63 0
380 -403 0
400 -403 0
-401 -403 0
-402 -403 0
401 402 403 -380 -400 0
-71 -72 -404 0
71 72 -404 0
72 404 -71 0
71 404 -72 0
405 -65 0
65 -405 0
-66 -405 -406 0
66 405 -406 0
405 406 -66 0
66 406 -405 0
66 -407 0
405 -407 0
407 -66 -405 0
408 -407 0
407 -408 0
-67 -408 -409 0
67 408 -409 0
408 409 -67 0
67 409 -408 0
67 -410 0
408 -410 0
410 -67 -408 0
411 -410 0
410 -411 0
-404 -412 0
-65 -412 0
404 65 412 0
404 -413 0
65 -413 0
413 -404 -65 0
414 -412 0
414 -413 0
412 413 -414 0
-404 -415 0
406 -415 0
404 415 -406 0
404 -416 0
66 -416 0
416 -404 -66 0
417 -415 0
417 -416 0
415 416 -417 0
-404 -418 0
409 -418 0
404 418 -409 0
404 -419 0
67 -419 0
419 -404 -67 0
420 -418 0
420 -419 0
418 419 -420 0
-73 -414 -421 0
73 414 -421 0
414 421 -73 0
73 421 -414 0
-74 -417 -422 0
74 417 -422 0
417 422 -74 0
74 422 -417 0
-75 -420 -423 0
75 420 -423 0
420 423 -75 0
75 423 -420 0
-421 -424 0
-422 -424 0
-423 -424 0
421 422 423 424 0
425 -68 0
68 -425 0
-69 -425 -426 0
69 425 -426 0
425 426 -69 0
69 426 -425 0
69 -427 0
425 -427 0
427 -69 -425 0
428 -427 0
427 -428 0
-70 -428 -429 0
70 428 -429 0
428 429 -70 0
70 429 -428 0
70 -430 0
428 -430 0
430 -70 -428 0
431 -430 0
430 -431 0
-404 -432 0
68 -432 0
404 432 -68 0
404 -433 0
-68 -433 0
68 433 -404 0
434 -432 0
434 -433 0
432 433 -434 0
-404 -435 0
69 -435 0
404 435 -69 0
404 -436 0
426 -436 0
436 -404 -426 0
437 -435 0
437 -436 0
435 436 -437 0
-404 -438 0
70 -438 0
404 438 -70 0
404 -439 0
429 -439 0
439 -404 -429 0
440 -438 0
440 -439 0
438 439 -440 0
-76 -434 -441 0
76 434 -441 0
434 441 -76 0
76 441 -434 0
-77 -437 -442 0
77 437 -442 0
437 442 -77 0
77 442 -437 0
-78 -440 -443 0
78 440 -443 0
440 443 -78 0
78 443 -440 0
-441 -444 0
-442 -444 0
-443 -444 0
441 442 443 444 0
72 -79 -445 0
79 -72 -445 0
445 -79 -72 0
79 72 445 0
-80 -71 -446 0
80 71 -446 0
71 446 -80 0
80 446 -71 0
424 -447 0
444 -447 0
-445 -447 0
-446 -447 0
445 446 447 -424 -444 0
-79 -80 -448 0
79 80 -448 0
80 448 -79 0
79 448 -80 0
449 -73 0
73 -449 0
-74 -449 -450 0
74 449 -450 0
449 450 -74 0
74 450 -449 0
74 -451 0
449 -451 0
451 -74 -449 0
452 -451 0
451 -452 0
-75 -452 -453 0
75 452 -453 0
452 453 -75 0
75 453 -452 0
75 -454 0
452 -454 0
454 -75 -452 0
455 -454 0
454 -455 0
-448 -456 0
-73 -456 0
448 73 456 0
448 -457 0
73 -457 0
457 -448 -73 0
458 -456 0
458 -457 0
456 457 -458 0
-448 -459 0
450 -459 0
448 459 -450 0
448 -460 0
74 -460 0
460 -448 -74 0
461 -459 0
461 -460 0
459 460 -461 0
-448 -462 0
453 -462 0
448 462 -453 0
448 -463 0
75 -463 0
463 -448 -75 0
464 -462 0
464 -463 0
462 463 -464 0
-81 -458 -465 0
81 458 -465 0
458 465 -81 0
81 465 -458 0
-82 -461 -466 0
82 461 -466 0
461 466 -82 0
82 466 -461 0
-83 -464 -467 0
83 464 -467 0
464 467 -83 0
83 467 -464 0
-465 -468 0
-466 -468 0
-467 -468 0
465 466 467 468 0
469 -76 0
76 -469 0
-77 -469 -470 0
77 469 -470 0
469 470 -77 0
77 470 -469 0
77 -471 0
469 -471 0
471 -77 -469 0
472 -471 0
471 -472 0
-78 -472 -473 0
78 472 -473 0
472 473 -78 0
78 473 -472 0
78 -474 0
472 -474 0
474 -78 -472 0
475 -474 0
474 -475 0
-448 -476 0
76 -476 0
448 476 -76 0
448 -477 0
-76 -477 0
76 477 -448 0
478 -476 0
478 -477 0
476 477 -478 0
-448 -479 0
77 -479 0
448 479 -77 0
448 -480 0
470 -480 0
480 -448 -470 0
481 -479 0
481 -480 0
479 480 -481 0
-448 -482 0
78 -482 0
448 482 -78 0
448 -483 0
473 -483 0
483 -448 -473 0
484 -482 0
484 -483 0
482 483 -484 0
-84 -478 -485 0
84 478 -485 0
478 485 -84 0
84 485 -478 0
-85 -481 -486 0
85 481 -486 0
481 486 -85 0
85 486 -481 0
-86 -484 -487 0
86 484 -487 0
484 487 -86 0
86 487 -484 0
-485 -488 0
-486 -488 0
-487 -488 0
485 486 487 488 0
80 -87 -489 0
87 -80 -489 0
489 -87 -80 0
87 80 489 0
-88 -79 -490 0
88 79 -490 0
79 490 -88 0
88 490 -79 0
468 -491 0
488 -491 0
-489 -491 0
-490 -491 0
489 490 491 -468 -488 0
315 -492 0
359 -492 0
403 -492 0
447 -492 0
491 -492 0
492 -315 -359 -403 -447 -491 0
-41 -49 -493 0
41 49 -493 0
49 493 -41 0
41 493 -49 0
-42 -50 -494 0
42 50 -494 0
50 494 -42 0
42 494 -50 0
-43 -51 -495 0
43 51 -495 0
51 495 -43 0
43 495 -51 0
-493 -496 0
-494 -496 0
-495 -496 0
493 494 495 496 0
-44 -52 -497 0
44 52 -497 0
52 497 -44 0
44 497 -52 0
-45 -53 -498 0
45 53 -498 0
53 498 -45 0
45 498 -53 0
-46 -54 -499 0
46 54 -499 0
54 499 -46 0
46 499 -54 0
-497 -500 0
-498 -500 0
-499 -500 0
497 498 499 500 0
-47 -55 -501 0
47 55 -501 0
55 501 -47 0
47 501 -55 0
-48 -56 -502 0
48 56 -502 0
56 502 -48 0
48 502 -56 0
496 -503 0
500 -503 0
-501 -503 0
-502 -503 0
501 502 503 -496 -500 0
-41 -57 -504 0
41 57 -504 0
57 504 -41 0
41 504 -57 0
-42 -58 -505 0
42 58 -505 0
58 505 -42 0
42 505 -58 0
-43 -59 -506 0
43 59 -506 0
59 506 -43 0
43 506 -59 0
-504 -507 0
-505 -507 0
-506 -507 0
504 505 506 507 0
-44 -60 -508 0
44 60 -508 0
60 508 -44 0
44 508 -60 0
-45 -61 -509 0
45 61 -509 0
61 509 -45 0
45 509 -61 0
-46 -62 -510 0
46 62 -510 0
62 510 -46 0
46 510 -62 0
-508 -511 0
-509 -511 0
-510 -511 0
508 509 510 511 0
-47 -63 -512 0
47 63 -512 0
63 512 -47 0
47 512 -63 0
-48 -64 -513 0
48 64 -513 0
64 513 -48 0
48 513 -64 0
507 -514 0
511 -514 0
-512 -514 0
-513 -514 0
512 513 514 -507 -511 0
-41 -65 -515 0
41 65 -515 0
65 515 -41 0
41 515 -65 0
-42 -66 -516 0
42 66 -516 0
66 516 -42 0
42 516 -66 0
-43 -67 -517 0
43 67 -517 0
67 517 -43 0
43 517 -67 0
-515 -518 0
-516 -518 0
-517 -518 0
515 516 517 518 0
-44 -68 -519 0
44 68 -519 0
68 519 -44 0
44 519 -68 0
-45 -69 -520 0
45 69 -520 0
69 520 -45 0
45 520 -69 0
-46 -70 -521 0
46 70 -521 0
70 521 -46 0
46 521 -70 0
-519 -522 0
-520 -522 0
-521 -522 0
519 520 521 522 0
-47 -71 -523 0
47 71 -523 0
71 523 -47 0
47 523 -71 0
-48 -72 -524 0
48 72 -524 0
72 524 -48 0
48 524 -72 0
518 -525 0
522 -525 0
-523 -525 0
-524 -525 0
523 524 525 -518 -522 0
-41 -73 -526 0
41 73 -526 0
73 526 -41 0
41 526 -73 0
-42 -74 -527 0
42 74 -527 0
74 527 -42 0
42 527 -74 0
-43 -75 -528 0
43 75 -528 0
75 528 -43 0
43 528 -75 0
-526 -529 0
-527 -529 0
-528 -529 0
526 527 528 529 0
-44 -76 -530 0
44 76 -530 0
76 530 -44 0
44 530 -76 0
-45 -77 -531 0
45 77 -531 0
77 531 -45 0
45 531 -77 0
-46 -78 -532 0
46 78 -532 0
78 532 -46 0
46 532 -78 0
-530 -533 0
-531 -533 0
-532 -533 0
530 531 532 533 0
-47 -79 -534 0
47 79 -534 0
79 534 -47 0
47 534 -79 0
-48 -80 -535 0
48 80 -535 0
80 535 -48 0
48 535 -80 0
529 -536 0
533 -536 0
-534 -536 0
-535 -536 0
534 535 536 -529 -533 0
-41 -81 -537 0
41 81 -537 0
81 537 -41 0
41 537 -81 0
-42 -82 -538 0
42 82 -538 0
82 538 -42 0
42 538 -82 0
-43 -83 -539 0
43 83 -539 0
83 539 -43 0
43 539 -83 0
-537 -540 0
-538 -540 0
-539 -540 0
537 538 539 540 0
-44 -84 -541 0
44 84 -541 0
84 541 -44 0
44 541 -84 0
-45 -85 -542 0
45 85 -542 0
85 542 -45 0
45 542 -85 0
-46 -86 -543 0
46 86 -543 0
86 543 -46 0
46 543 -86 0
-541 -544 0
-542 -544 0
-543 -544 0
541 542 543 544 0
-47 -87 -545 0
47 87 -545 0
87 545 -47 0
47 545 -87 0
-48 -88 -546 0
48 88 -546 0
88 546 -48 0
48 546 -88 0
540 -547 0
544 -547 0
-545 -547 0
-546 -547 0
545 546 547 -540 -544 0
548 -503 0
548 -514 0
548 -525 0
548 -536 0
548 -547 0
503 514 525 536 547 -548 0
492 -549 0
548 -549 0
549 -492 -548 0
549 -312 0
